NAME : Unnamed.772.tour
COMMENT : Length = 772
COMMENT : Found by LKH [Keld Helsgaun] Tue Jan 13 16:45:15 2015
TYPE : TOUR
DIMENSION : 87
TOUR_SECTION
1
6
5
87
3
2
45
68
60
50
10
25
9
4
7
8
34
18
19
29
23
65
72
76
56
55
73
79
43
63
75
12
21
47
13
37
32
17
20
36
11
35
15
14
30
22
26
24
33
27
31
16
38
51
82
54
59
84
39
44
49
48
52
40
41
42
46
70
86
81
80
77
58
61
78
67
66
53
62
71
85
83
69
74
64
57
28
-1
EOF
